; benchmark generated from python API
(set-info :status unknown)
(declare-fun cell_1_1 () Int)
(declare-fun cell_1_3 () Int)
(declare-fun cell_2_4 () Int)
(declare-fun cell_2_9 () Int)
(declare-fun cell_3_6 () Int)
(declare-fun cell_3_8 () Int)
(declare-fun cell_4_1 () Int)
(declare-fun cell_5_9 () Int)
(declare-fun cell_6_6 () Int)
(declare-fun cell_7_2 () Int)
(declare-fun cell_8_5 () Int)
(declare-fun cell_9_7 () Int)
(declare-fun cell_2_1 () Int)
(declare-fun cell_3_1 () Int)
(declare-fun cell_5_1 () Int)
(declare-fun cell_6_1 () Int)
(declare-fun cell_7_1 () Int)
(declare-fun cell_8_1 () Int)
(declare-fun cell_9_1 () Int)
(declare-fun cell_1_2 () Int)
(declare-fun cell_2_2 () Int)
(declare-fun cell_3_2 () Int)
(declare-fun cell_4_2 () Int)
(declare-fun cell_5_2 () Int)
(declare-fun cell_6_2 () Int)
(declare-fun cell_8_2 () Int)
(declare-fun cell_9_2 () Int)
(declare-fun cell_2_3 () Int)
(declare-fun cell_3_3 () Int)
(declare-fun cell_4_3 () Int)
(declare-fun cell_5_3 () Int)
(declare-fun cell_6_3 () Int)
(declare-fun cell_7_3 () Int)
(declare-fun cell_8_3 () Int)
(declare-fun cell_9_3 () Int)
(declare-fun cell_1_4 () Int)
(declare-fun cell_3_4 () Int)
(declare-fun cell_4_4 () Int)
(declare-fun cell_5_4 () Int)
(declare-fun cell_6_4 () Int)
(declare-fun cell_7_4 () Int)
(declare-fun cell_8_4 () Int)
(declare-fun cell_9_4 () Int)
(declare-fun cell_1_5 () Int)
(declare-fun cell_2_5 () Int)
(declare-fun cell_3_5 () Int)
(declare-fun cell_4_5 () Int)
(declare-fun cell_5_5 () Int)
(declare-fun cell_6_5 () Int)
(declare-fun cell_7_5 () Int)
(declare-fun cell_9_5 () Int)
(declare-fun cell_1_6 () Int)
(declare-fun cell_2_6 () Int)
(declare-fun cell_4_6 () Int)
(declare-fun cell_5_6 () Int)
(declare-fun cell_7_6 () Int)
(declare-fun cell_8_6 () Int)
(declare-fun cell_9_6 () Int)
(declare-fun cell_1_7 () Int)
(declare-fun cell_2_7 () Int)
(declare-fun cell_3_7 () Int)
(declare-fun cell_4_7 () Int)
(declare-fun cell_5_7 () Int)
(declare-fun cell_6_7 () Int)
(declare-fun cell_7_7 () Int)
(declare-fun cell_8_7 () Int)
(declare-fun cell_1_8 () Int)
(declare-fun cell_2_8 () Int)
(declare-fun cell_4_8 () Int)
(declare-fun cell_5_8 () Int)
(declare-fun cell_6_8 () Int)
(declare-fun cell_7_8 () Int)
(declare-fun cell_8_8 () Int)
(declare-fun cell_9_8 () Int)
(declare-fun cell_1_9 () Int)
(declare-fun cell_3_9 () Int)
(declare-fun cell_4_9 () Int)
(declare-fun cell_6_9 () Int)
(declare-fun cell_7_9 () Int)
(declare-fun cell_8_9 () Int)
(declare-fun cell_9_9 () Int)
(assert
 (= cell_1_1 2))
(assert
 (= cell_1_3 1))
(assert
 (= cell_2_4 1))
(assert
 (= cell_2_9 2))
(assert
 (= cell_3_6 2))
(assert
 (= cell_3_8 1))
(assert
 (= cell_4_1 1))
(assert
 (= cell_5_9 1))
(assert
 (= cell_6_6 1))
(assert
 (= cell_7_2 1))
(assert
 (= cell_8_5 1))
(assert
 (= cell_9_7 1))
(assert
 (let (($x5561 (= cell_1_1 2)))
 (or (= cell_1_1 1) $x5561 (= cell_1_1 3) (= cell_1_1 4) (= cell_1_1 5) (= cell_1_1 6) (= cell_1_1 7) (= cell_1_1 8) (= cell_1_1 9))))
(assert
 (let (($x9118 (= cell_2_1 9)))
 (let (($x1789 (= cell_2_1 8)))
 (let (($x5702 (= cell_2_1 7)))
 (let (($x3886 (= cell_2_1 6)))
 (let (($x7290 (= cell_2_1 5)))
 (let (($x3929 (= cell_2_1 4)))
 (let (($x3000 (= cell_2_1 3)))
 (let (($x7810 (= cell_2_1 2)))
 (let (($x538 (= cell_2_1 1)))
 (or $x538 $x7810 $x3000 $x3929 $x7290 $x3886 $x5702 $x1789 $x9118)))))))))))
(assert
 (let (($x5861 (= cell_3_1 9)))
 (let (($x4472 (= cell_3_1 8)))
 (let (($x4832 (= cell_3_1 7)))
 (let (($x9704 (= cell_3_1 6)))
 (let (($x9781 (= cell_3_1 5)))
 (let (($x3282 (= cell_3_1 4)))
 (let (($x4929 (= cell_3_1 3)))
 (let (($x561 (= cell_3_1 2)))
 (let (($x656 (= cell_3_1 1)))
 (or $x656 $x561 $x4929 $x3282 $x9781 $x9704 $x4832 $x4472 $x5861)))))))))))
(assert
 (let (($x2838 (= cell_4_1 1)))
 (or $x2838 (= cell_4_1 2) (= cell_4_1 3) (= cell_4_1 4) (= cell_4_1 5) (= cell_4_1 6) (= cell_4_1 7) (= cell_4_1 8) (= cell_4_1 9))))
(assert
 (let (($x7479 (= cell_5_1 9)))
 (let (($x10115 (= cell_5_1 8)))
 (let (($x8901 (= cell_5_1 7)))
 (let (($x1072 (= cell_5_1 6)))
 (let (($x9539 (= cell_5_1 5)))
 (let (($x405 (= cell_5_1 4)))
 (let (($x4964 (= cell_5_1 3)))
 (let (($x7804 (= cell_5_1 2)))
 (let (($x5421 (= cell_5_1 1)))
 (or $x5421 $x7804 $x4964 $x405 $x9539 $x1072 $x8901 $x10115 $x7479)))))))))))
(assert
 (let (($x1006 (= cell_6_1 9)))
 (let (($x2739 (= cell_6_1 8)))
 (let (($x4222 (= cell_6_1 7)))
 (let (($x8081 (= cell_6_1 6)))
 (let (($x8136 (= cell_6_1 5)))
 (let (($x8334 (= cell_6_1 4)))
 (let (($x414 (= cell_6_1 3)))
 (let (($x8623 (= cell_6_1 2)))
 (let (($x3439 (= cell_6_1 1)))
 (or $x3439 $x8623 $x414 $x8334 $x8136 $x8081 $x4222 $x2739 $x1006)))))))))))
(assert
 (let (($x9696 (= cell_7_1 9)))
 (let (($x1983 (= cell_7_1 8)))
 (let (($x7877 (= cell_7_1 7)))
 (let (($x5896 (= cell_7_1 6)))
 (let (($x5514 (= cell_7_1 5)))
 (let (($x6863 (= cell_7_1 4)))
 (let (($x7474 (= cell_7_1 3)))
 (let (($x3211 (= cell_7_1 2)))
 (let (($x3753 (= cell_7_1 1)))
 (or $x3753 $x3211 $x7474 $x6863 $x5514 $x5896 $x7877 $x1983 $x9696)))))))))))
(assert
 (let (($x8195 (= cell_8_1 9)))
 (let (($x1815 (= cell_8_1 8)))
 (let (($x4071 (= cell_8_1 7)))
 (let (($x2145 (= cell_8_1 6)))
 (let (($x1961 (= cell_8_1 5)))
 (let (($x1181 (= cell_8_1 4)))
 (let (($x9209 (= cell_8_1 3)))
 (let (($x6221 (= cell_8_1 2)))
 (let (($x8189 (= cell_8_1 1)))
 (or $x8189 $x6221 $x9209 $x1181 $x1961 $x2145 $x4071 $x1815 $x8195)))))))))))
(assert
 (let (($x1740 (= cell_9_1 9)))
 (let (($x6584 (= cell_9_1 8)))
 (let (($x4109 (= cell_9_1 7)))
 (let (($x10012 (= cell_9_1 6)))
 (let (($x1969 (= cell_9_1 5)))
 (let (($x3790 (= cell_9_1 4)))
 (let (($x6587 (= cell_9_1 3)))
 (let (($x3703 (= cell_9_1 2)))
 (let (($x787 (= cell_9_1 1)))
 (or $x787 $x3703 $x6587 $x3790 $x1969 $x10012 $x4109 $x6584 $x1740)))))))))))
(assert
 (let (($x503 (= cell_1_2 9)))
 (let (($x1275 (= cell_1_2 8)))
 (let (($x6315 (= cell_1_2 7)))
 (let (($x5413 (= cell_1_2 6)))
 (let (($x1757 (= cell_1_2 5)))
 (let (($x1915 (= cell_1_2 4)))
 (let (($x785 (= cell_1_2 3)))
 (let (($x1475 (= cell_1_2 2)))
 (let (($x2973 (= cell_1_2 1)))
 (or $x2973 $x1475 $x785 $x1915 $x1757 $x5413 $x6315 $x1275 $x503)))))))))))
(assert
 (let (($x4250 (= cell_2_2 9)))
 (let (($x1312 (= cell_2_2 8)))
 (let (($x2571 (= cell_2_2 7)))
 (let (($x6302 (= cell_2_2 6)))
 (let (($x7583 (= cell_2_2 5)))
 (let (($x2711 (= cell_2_2 4)))
 (let (($x9490 (= cell_2_2 3)))
 (let (($x6605 (= cell_2_2 2)))
 (let (($x2290 (= cell_2_2 1)))
 (or $x2290 $x6605 $x9490 $x2711 $x7583 $x6302 $x2571 $x1312 $x4250)))))))))))
(assert
 (let (($x1325 (= cell_3_2 9)))
 (let (($x1361 (= cell_3_2 8)))
 (let (($x3567 (= cell_3_2 7)))
 (let (($x6547 (= cell_3_2 6)))
 (let (($x2432 (= cell_3_2 5)))
 (let (($x3464 (= cell_3_2 4)))
 (let (($x1628 (= cell_3_2 3)))
 (let (($x3555 (= cell_3_2 2)))
 (let (($x920 (= cell_3_2 1)))
 (or $x920 $x3555 $x1628 $x3464 $x2432 $x6547 $x3567 $x1361 $x1325)))))))))))
(assert
 (let (($x3831 (= cell_4_2 9)))
 (let (($x6276 (= cell_4_2 8)))
 (let (($x9869 (= cell_4_2 7)))
 (let (($x3963 (= cell_4_2 6)))
 (let (($x2773 (= cell_4_2 5)))
 (let (($x8881 (= cell_4_2 4)))
 (let (($x2367 (= cell_4_2 3)))
 (let (($x6950 (= cell_4_2 2)))
 (let (($x5780 (= cell_4_2 1)))
 (or $x5780 $x6950 $x2367 $x8881 $x2773 $x3963 $x9869 $x6276 $x3831)))))))))))
(assert
 (let (($x5128 (= cell_5_2 9)))
 (let (($x8796 (= cell_5_2 8)))
 (let (($x7759 (= cell_5_2 7)))
 (let (($x9442 (= cell_5_2 6)))
 (let (($x9566 (= cell_5_2 5)))
 (let (($x4311 (= cell_5_2 4)))
 (let (($x3621 (= cell_5_2 3)))
 (let (($x936 (= cell_5_2 2)))
 (let (($x5384 (= cell_5_2 1)))
 (or $x5384 $x936 $x3621 $x4311 $x9566 $x9442 $x7759 $x8796 $x5128)))))))))))
(assert
 (let (($x9232 (= cell_6_2 9)))
 (let (($x2513 (= cell_6_2 8)))
 (let (($x3912 (= cell_6_2 7)))
 (let (($x5485 (= cell_6_2 6)))
 (let (($x5890 (= cell_6_2 5)))
 (let (($x4860 (= cell_6_2 4)))
 (let (($x726 (= cell_6_2 3)))
 (let (($x3887 (= cell_6_2 2)))
 (let (($x1282 (= cell_6_2 1)))
 (or $x1282 $x3887 $x726 $x4860 $x5890 $x5485 $x3912 $x2513 $x9232)))))))))))
(assert
 (let (($x1591 (= cell_7_2 1)))
 (or $x1591 (= cell_7_2 2) (= cell_7_2 3) (= cell_7_2 4) (= cell_7_2 5) (= cell_7_2 6) (= cell_7_2 7) (= cell_7_2 8) (= cell_7_2 9))))
(assert
 (let (($x3133 (= cell_8_2 9)))
 (let (($x3866 (= cell_8_2 8)))
 (let (($x764 (= cell_8_2 7)))
 (let (($x8836 (= cell_8_2 6)))
 (let (($x1103 (= cell_8_2 5)))
 (let (($x7999 (= cell_8_2 4)))
 (let (($x8751 (= cell_8_2 3)))
 (let (($x4098 (= cell_8_2 2)))
 (let (($x1778 (= cell_8_2 1)))
 (or $x1778 $x4098 $x8751 $x7999 $x1103 $x8836 $x764 $x3866 $x3133)))))))))))
(assert
 (let (($x2031 (= cell_9_2 9)))
 (let (($x9951 (= cell_9_2 8)))
 (let (($x9161 (= cell_9_2 7)))
 (let (($x4384 (= cell_9_2 6)))
 (let (($x2848 (= cell_9_2 5)))
 (let (($x7587 (= cell_9_2 4)))
 (let (($x346 (= cell_9_2 3)))
 (let (($x5548 (= cell_9_2 2)))
 (let (($x8112 (= cell_9_2 1)))
 (or $x8112 $x5548 $x346 $x7587 $x2848 $x4384 $x9161 $x9951 $x2031)))))))))))
(assert
 (let (($x344 (= cell_1_3 1)))
 (or $x344 (= cell_1_3 2) (= cell_1_3 3) (= cell_1_3 4) (= cell_1_3 5) (= cell_1_3 6) (= cell_1_3 7) (= cell_1_3 8) (= cell_1_3 9))))
(assert
 (let (($x5218 (= cell_2_3 9)))
 (let (($x2578 (= cell_2_3 8)))
 (let (($x8295 (= cell_2_3 7)))
 (let (($x3198 (= cell_2_3 6)))
 (let (($x9725 (= cell_2_3 5)))
 (let (($x7292 (= cell_2_3 4)))
 (let (($x3991 (= cell_2_3 3)))
 (let (($x9832 (= cell_2_3 2)))
 (let (($x1677 (= cell_2_3 1)))
 (or $x1677 $x9832 $x3991 $x7292 $x9725 $x3198 $x8295 $x2578 $x5218)))))))))))
(assert
 (let (($x6139 (= cell_3_3 9)))
 (let (($x1853 (= cell_3_3 8)))
 (let (($x1929 (= cell_3_3 7)))
 (let (($x7088 (= cell_3_3 6)))
 (let (($x7134 (= cell_3_3 5)))
 (let (($x2708 (= cell_3_3 4)))
 (let (($x3261 (= cell_3_3 3)))
 (let (($x6230 (= cell_3_3 2)))
 (let (($x8246 (= cell_3_3 1)))
 (or $x8246 $x6230 $x3261 $x2708 $x7134 $x7088 $x1929 $x1853 $x6139)))))))))))
(assert
 (let (($x24 (= cell_4_3 1)))
 (or $x24 (= cell_4_3 2) (= cell_4_3 3) (= cell_4_3 4) (= cell_4_3 5) (= cell_4_3 6) (= cell_4_3 7) (= cell_4_3 8) (= cell_4_3 9))))
(assert
 (let (($x2590 (= cell_5_3 9)))
 (let (($x6817 (= cell_5_3 8)))
 (let (($x6138 (= cell_5_3 7)))
 (let (($x8373 (= cell_5_3 6)))
 (let (($x497 (= cell_5_3 5)))
 (let (($x3554 (= cell_5_3 4)))
 (let (($x5368 (= cell_5_3 3)))
 (let (($x389 (= cell_5_3 2)))
 (let (($x3336 (= cell_5_3 1)))
 (or $x3336 $x389 $x5368 $x3554 $x497 $x8373 $x6138 $x6817 $x2590)))))))))))
(assert
 (let (($x823 (= cell_6_3 9)))
 (let (($x9594 (= cell_6_3 8)))
 (let (($x1379 (= cell_6_3 7)))
 (let (($x8932 (= cell_6_3 6)))
 (let (($x8586 (= cell_6_3 5)))
 (let (($x1876 (= cell_6_3 4)))
 (let (($x7758 (= cell_6_3 3)))
 (let (($x1734 (= cell_6_3 2)))
 (let (($x9446 (= cell_6_3 1)))
 (or $x9446 $x1734 $x7758 $x1876 $x8586 $x8932 $x1379 $x9594 $x823)))))))))))
(assert
 (let (($x1573 (= cell_7_3 1)))
 (or $x1573 (= cell_7_3 2) (= cell_7_3 3) (= cell_7_3 4) (= cell_7_3 5) (= cell_7_3 6) (= cell_7_3 7) (= cell_7_3 8) (= cell_7_3 9))))
(assert
 (let (($x9381 (= cell_8_3 9)))
 (let (($x6465 (= cell_8_3 8)))
 (let (($x6810 (= cell_8_3 7)))
 (let (($x6218 (= cell_8_3 6)))
 (let (($x9100 (= cell_8_3 5)))
 (let (($x9347 (= cell_8_3 4)))
 (let (($x5522 (= cell_8_3 3)))
 (let (($x355 (= cell_8_3 2)))
 (let (($x8671 (= cell_8_3 1)))
 (or $x8671 $x355 $x5522 $x9347 $x9100 $x6218 $x6810 $x6465 $x9381)))))))))))
(assert
 (let (($x7452 (= cell_9_3 9)))
 (let (($x8440 (= cell_9_3 8)))
 (let (($x297 (= cell_9_3 7)))
 (let (($x1991 (= cell_9_3 6)))
 (let (($x612 (= cell_9_3 5)))
 (let (($x3264 (= cell_9_3 4)))
 (let (($x1553 (= cell_9_3 3)))
 (let (($x1116 (= cell_9_3 2)))
 (let (($x4110 (= cell_9_3 1)))
 (or $x4110 $x1116 $x1553 $x3264 $x612 $x1991 $x297 $x8440 $x7452)))))))))))
(assert
 (let (($x4383 (= cell_1_4 9)))
 (let (($x4074 (= cell_1_4 8)))
 (let (($x3701 (= cell_1_4 7)))
 (let (($x3551 (= cell_1_4 6)))
 (let (($x5281 (= cell_1_4 5)))
 (let (($x1244 (= cell_1_4 4)))
 (let (($x3647 (= cell_1_4 3)))
 (let (($x9215 (= cell_1_4 2)))
 (let (($x1950 (= cell_1_4 1)))
 (or $x1950 $x9215 $x3647 $x1244 $x5281 $x3551 $x3701 $x4074 $x4383)))))))))))
(assert
 (let (($x4517 (= cell_2_4 1)))
 (or $x4517 (= cell_2_4 2) (= cell_2_4 3) (= cell_2_4 4) (= cell_2_4 5) (= cell_2_4 6) (= cell_2_4 7) (= cell_2_4 8) (= cell_2_4 9))))
(assert
 (let (($x9881 (= cell_3_4 9)))
 (let (($x986 (= cell_3_4 8)))
 (let (($x9025 (= cell_3_4 7)))
 (let (($x894 (= cell_3_4 6)))
 (let (($x5326 (= cell_3_4 5)))
 (let (($x9891 (= cell_3_4 4)))
 (let (($x6628 (= cell_3_4 3)))
 (let (($x3671 (= cell_3_4 2)))
 (let (($x6382 (= cell_3_4 1)))
 (or $x6382 $x3671 $x6628 $x9891 $x5326 $x894 $x9025 $x986 $x9881)))))))))))
(assert
 (let (($x5181 (= cell_4_4 9)))
 (let (($x1835 (= cell_4_4 8)))
 (let (($x2958 (= cell_4_4 7)))
 (let (($x904 (= cell_4_4 6)))
 (let (($x1823 (= cell_4_4 5)))
 (let (($x6623 (= cell_4_4 4)))
 (let (($x9976 (= cell_4_4 3)))
 (let (($x711 (= cell_4_4 2)))
 (let (($x7570 (= cell_4_4 1)))
 (or $x7570 $x711 $x9976 $x6623 $x1823 $x904 $x2958 $x1835 $x5181)))))))))))
(assert
 (let (($x8450 (= cell_5_4 9)))
 (let (($x2575 (= cell_5_4 8)))
 (let (($x881 (= cell_5_4 7)))
 (let (($x4953 (= cell_5_4 6)))
 (let (($x5581 (= cell_5_4 5)))
 (let (($x5711 (= cell_5_4 4)))
 (let (($x9734 (= cell_5_4 3)))
 (let (($x5911 (= cell_5_4 2)))
 (let (($x8214 (= cell_5_4 1)))
 (or $x8214 $x5911 $x9734 $x5711 $x5581 $x4953 $x881 $x2575 $x8450)))))))))))
(assert
 (let (($x5433 (= cell_6_4 9)))
 (let (($x5969 (= cell_6_4 8)))
 (let (($x6970 (= cell_6_4 7)))
 (let (($x8848 (= cell_6_4 6)))
 (let (($x6592 (= cell_6_4 5)))
 (let (($x4009 (= cell_6_4 4)))
 (let (($x361 (= cell_6_4 3)))
 (let (($x2310 (= cell_6_4 2)))
 (let (($x2487 (= cell_6_4 1)))
 (or $x2487 $x2310 $x361 $x4009 $x6592 $x8848 $x6970 $x5969 $x5433)))))))))))
(assert
 (let (($x266 (= cell_7_4 9)))
 (let (($x7299 (= cell_7_4 8)))
 (let (($x6005 (= cell_7_4 7)))
 (let (($x7260 (= cell_7_4 6)))
 (let (($x2303 (= cell_7_4 5)))
 (let (($x8940 (= cell_7_4 4)))
 (let (($x9301 (= cell_7_4 3)))
 (let (($x8763 (= cell_7_4 2)))
 (let (($x1250 (= cell_7_4 1)))
 (or $x1250 $x8763 $x9301 $x8940 $x2303 $x7260 $x6005 $x7299 $x266)))))))))))
(assert
 (let (($x5774 (= cell_8_4 9)))
 (let (($x4691 (= cell_8_4 8)))
 (let (($x8675 (= cell_8_4 7)))
 (let (($x3299 (= cell_8_4 6)))
 (let (($x2248 (= cell_8_4 5)))
 (let (($x7534 (= cell_8_4 4)))
 (let (($x2023 (= cell_8_4 3)))
 (let (($x5823 (= cell_8_4 2)))
 (let (($x7279 (= cell_8_4 1)))
 (or $x7279 $x5823 $x2023 $x7534 $x2248 $x3299 $x8675 $x4691 $x5774)))))))))))
(assert
 (let (($x2729 (= cell_9_4 9)))
 (let (($x6728 (= cell_9_4 8)))
 (let (($x2535 (= cell_9_4 7)))
 (let (($x643 (= cell_9_4 6)))
 (let (($x8194 (= cell_9_4 5)))
 (let (($x6876 (= cell_9_4 4)))
 (let (($x3391 (= cell_9_4 3)))
 (let (($x9191 (= cell_9_4 2)))
 (let (($x4926 (= cell_9_4 1)))
 (or $x4926 $x9191 $x3391 $x6876 $x8194 $x643 $x2535 $x6728 $x2729)))))))))))
(assert
 (let (($x342 (= cell_1_5 9)))
 (let (($x8349 (= cell_1_5 8)))
 (let (($x5680 (= cell_1_5 7)))
 (let (($x8370 (= cell_1_5 6)))
 (let (($x1904 (= cell_1_5 5)))
 (let (($x831 (= cell_1_5 4)))
 (let (($x2355 (= cell_1_5 3)))
 (let (($x3215 (= cell_1_5 2)))
 (let (($x1883 (= cell_1_5 1)))
 (or $x1883 $x3215 $x2355 $x831 $x1904 $x8370 $x5680 $x8349 $x342)))))))))))
(assert
 (let (($x8003 (= cell_2_5 9)))
 (let (($x9772 (= cell_2_5 8)))
 (let (($x7463 (= cell_2_5 7)))
 (let (($x8992 (= cell_2_5 6)))
 (let (($x7640 (= cell_2_5 5)))
 (let (($x9140 (= cell_2_5 4)))
 (let (($x5513 (= cell_2_5 3)))
 (let (($x6121 (= cell_2_5 2)))
 (let (($x1751 (= cell_2_5 1)))
 (or $x1751 $x6121 $x5513 $x9140 $x7640 $x8992 $x7463 $x9772 $x8003)))))))))))
(assert
 (let (($x2870 (= cell_3_5 9)))
 (let (($x1799 (= cell_3_5 8)))
 (let (($x1603 (= cell_3_5 7)))
 (let (($x2467 (= cell_3_5 6)))
 (let (($x2716 (= cell_3_5 5)))
 (let (($x9691 (= cell_3_5 4)))
 (let (($x8306 (= cell_3_5 3)))
 (let (($x7881 (= cell_3_5 2)))
 (let (($x3175 (= cell_3_5 1)))
 (or $x3175 $x7881 $x8306 $x9691 $x2716 $x2467 $x1603 $x1799 $x2870)))))))))))
(assert
 (let (($x7925 (= cell_4_5 9)))
 (let (($x4688 (= cell_4_5 8)))
 (let (($x9305 (= cell_4_5 7)))
 (let (($x9575 (= cell_4_5 6)))
 (let (($x6609 (= cell_4_5 5)))
 (let (($x3438 (= cell_4_5 4)))
 (let (($x3294 (= cell_4_5 3)))
 (let (($x5017 (= cell_4_5 2)))
 (let (($x609 (= cell_4_5 1)))
 (or $x609 $x5017 $x3294 $x3438 $x6609 $x9575 $x9305 $x4688 $x7925)))))))))))
(assert
 (let (($x8622 (= cell_5_5 9)))
 (let (($x9337 (= cell_5_5 8)))
 (let (($x7775 (= cell_5_5 7)))
 (let (($x2685 (= cell_5_5 6)))
 (let (($x323 (= cell_5_5 5)))
 (let (($x9081 (= cell_5_5 4)))
 (let (($x4087 (= cell_5_5 3)))
 (let (($x3124 (= cell_5_5 2)))
 (let (($x2628 (= cell_5_5 1)))
 (or $x2628 $x3124 $x4087 $x9081 $x323 $x2685 $x7775 $x9337 $x8622)))))))))))
(assert
 (let (($x3614 (= cell_6_5 9)))
 (let (($x4950 (= cell_6_5 8)))
 (let (($x6836 (= cell_6_5 7)))
 (let (($x7423 (= cell_6_5 6)))
 (let (($x1485 (= cell_6_5 5)))
 (let (($x4895 (= cell_6_5 4)))
 (let (($x2323 (= cell_6_5 3)))
 (let (($x4184 (= cell_6_5 2)))
 (let (($x8082 (= cell_6_5 1)))
 (or $x8082 $x4184 $x2323 $x4895 $x1485 $x7423 $x6836 $x4950 $x3614)))))))))))
(assert
 (let (($x7305 (= cell_7_5 9)))
 (let (($x244 (= cell_7_5 8)))
 (let (($x5962 (= cell_7_5 7)))
 (let (($x903 (= cell_7_5 6)))
 (let (($x5573 (= cell_7_5 5)))
 (let (($x80 (= cell_7_5 4)))
 (let (($x9510 (= cell_7_5 3)))
 (let (($x3021 (= cell_7_5 2)))
 (let (($x2234 (= cell_7_5 1)))
 (or $x2234 $x3021 $x9510 $x80 $x5573 $x903 $x5962 $x244 $x7305)))))))))))
(assert
 (let (($x9722 (= cell_8_5 1)))
 (or $x9722 (= cell_8_5 2) (= cell_8_5 3) (= cell_8_5 4) (= cell_8_5 5) (= cell_8_5 6) (= cell_8_5 7) (= cell_8_5 8) (= cell_8_5 9))))
(assert
 (let (($x3823 (= cell_9_5 9)))
 (let (($x9961 (= cell_9_5 8)))
 (let (($x8033 (= cell_9_5 7)))
 (let (($x8019 (= cell_9_5 6)))
 (let (($x4810 (= cell_9_5 5)))
 (let (($x5590 (= cell_9_5 4)))
 (let (($x971 (= cell_9_5 3)))
 (let (($x5579 (= cell_9_5 2)))
 (let (($x1781 (= cell_9_5 1)))
 (or $x1781 $x5579 $x971 $x5590 $x4810 $x8019 $x8033 $x9961 $x3823)))))))))))
(assert
 (let (($x5261 (= cell_1_6 9)))
 (let (($x7096 (= cell_1_6 8)))
 (let (($x9334 (= cell_1_6 7)))
 (let (($x7164 (= cell_1_6 6)))
 (let (($x4130 (= cell_1_6 5)))
 (let (($x7475 (= cell_1_6 4)))
 (let (($x9476 (= cell_1_6 3)))
 (let (($x2993 (= cell_1_6 2)))
 (let (($x6055 (= cell_1_6 1)))
 (or $x6055 $x2993 $x9476 $x7475 $x4130 $x7164 $x9334 $x7096 $x5261)))))))))))
(assert
 (let (($x5065 (= cell_2_6 9)))
 (let (($x5307 (= cell_2_6 8)))
 (let (($x4833 (= cell_2_6 7)))
 (let (($x4099 (= cell_2_6 6)))
 (let (($x7987 (= cell_2_6 5)))
 (let (($x8843 (= cell_2_6 4)))
 (let (($x265 (= cell_2_6 3)))
 (let (($x5567 (= cell_2_6 2)))
 (let (($x5468 (= cell_2_6 1)))
 (or $x5468 $x5567 $x265 $x8843 $x7987 $x4099 $x4833 $x5307 $x5065)))))))))))
(assert
 (let (($x3984 (= cell_3_6 2)))
 (or (= cell_3_6 1) $x3984 (= cell_3_6 3) (= cell_3_6 4) (= cell_3_6 5) (= cell_3_6 6) (= cell_3_6 7) (= cell_3_6 8) (= cell_3_6 9))))
(assert
 (let (($x4460 (= cell_4_6 9)))
 (let (($x4978 (= cell_4_6 8)))
 (let (($x858 (= cell_4_6 7)))
 (let (($x4892 (= cell_4_6 6)))
 (let (($x1921 (= cell_4_6 5)))
 (let (($x9222 (= cell_4_6 4)))
 (let (($x714 (= cell_4_6 3)))
 (let (($x9259 (= cell_4_6 2)))
 (let (($x7745 (= cell_4_6 1)))
 (or $x7745 $x9259 $x714 $x9222 $x1921 $x4892 $x858 $x4978 $x4460)))))))))))
(assert
 (let (($x6998 (= cell_5_6 9)))
 (let (($x4167 (= cell_5_6 8)))
 (let (($x9398 (= cell_5_6 7)))
 (let (($x647 (= cell_5_6 6)))
 (let (($x1054 (= cell_5_6 5)))
 (let (($x7924 (= cell_5_6 4)))
 (let (($x1796 (= cell_5_6 3)))
 (let (($x3054 (= cell_5_6 2)))
 (let (($x9572 (= cell_5_6 1)))
 (or $x9572 $x3054 $x1796 $x7924 $x1054 $x647 $x9398 $x4167 $x6998)))))))))))
(assert
 (let (($x2624 (= cell_6_6 1)))
 (or $x2624 (= cell_6_6 2) (= cell_6_6 3) (= cell_6_6 4) (= cell_6_6 5) (= cell_6_6 6) (= cell_6_6 7) (= cell_6_6 8) (= cell_6_6 9))))
(assert
 (let (($x2224 (= cell_7_6 9)))
 (let (($x8549 (= cell_7_6 8)))
 (let (($x1535 (= cell_7_6 7)))
 (let (($x10176 (= cell_7_6 6)))
 (let (($x7859 (= cell_7_6 5)))
 (let (($x5985 (= cell_7_6 4)))
 (let (($x4008 (= cell_7_6 3)))
 (let (($x3914 (= cell_7_6 2)))
 (let (($x3935 (= cell_7_6 1)))
 (or $x3935 $x3914 $x4008 $x5985 $x7859 $x10176 $x1535 $x8549 $x2224)))))))))))
(assert
 (let (($x4165 (= cell_8_6 2)))
 (let (($x8132 (= cell_8_6 1)))
 (or $x8132 $x4165 (= cell_8_6 3) (= cell_8_6 4) (= cell_8_6 5) (= cell_8_6 6) (= cell_8_6 7) (= cell_8_6 8) (= cell_8_6 9)))))
(assert
 (let (($x9842 (= cell_9_6 9)))
 (let (($x9962 (= cell_9_6 8)))
 (let (($x1115 (= cell_9_6 7)))
 (let (($x1016 (= cell_9_6 6)))
 (let (($x2282 (= cell_9_6 5)))
 (let (($x136 (= cell_9_6 4)))
 (let (($x7628 (= cell_9_6 3)))
 (let (($x1726 (= cell_9_6 2)))
 (let (($x445 (= cell_9_6 1)))
 (or $x445 $x1726 $x7628 $x136 $x2282 $x1016 $x1115 $x9962 $x9842)))))))))))
(assert
 (let (($x940 (= cell_1_7 9)))
 (let (($x6333 (= cell_1_7 8)))
 (let (($x4336 (= cell_1_7 7)))
 (let (($x8095 (= cell_1_7 6)))
 (let (($x7330 (= cell_1_7 5)))
 (let (($x5900 (= cell_1_7 4)))
 (let (($x3137 (= cell_1_7 3)))
 (let (($x7780 (= cell_1_7 2)))
 (let (($x6234 (= cell_1_7 1)))
 (or $x6234 $x7780 $x3137 $x5900 $x7330 $x8095 $x4336 $x6333 $x940)))))))))))
(assert
 (let (($x761 (= cell_2_7 9)))
 (let (($x6223 (= cell_2_7 8)))
 (let (($x4976 (= cell_2_7 7)))
 (let (($x2595 (= cell_2_7 6)))
 (let (($x7696 (= cell_2_7 5)))
 (let (($x6540 (= cell_2_7 4)))
 (let (($x4636 (= cell_2_7 3)))
 (let (($x8851 (= cell_2_7 2)))
 (let (($x2990 (= cell_2_7 1)))
 (or $x2990 $x8851 $x4636 $x6540 $x7696 $x2595 $x4976 $x6223 $x761)))))))))))
(assert
 (let (($x3365 (= cell_3_7 9)))
 (let (($x1254 (= cell_3_7 8)))
 (let (($x4896 (= cell_3_7 7)))
 (let (($x6641 (= cell_3_7 6)))
 (let (($x6636 (= cell_3_7 5)))
 (let (($x493 (= cell_3_7 4)))
 (let (($x10319 (= cell_3_7 3)))
 (let (($x9502 (= cell_3_7 2)))
 (let (($x7172 (= cell_3_7 1)))
 (or $x7172 $x9502 $x10319 $x493 $x6636 $x6641 $x4896 $x1254 $x3365)))))))))))
(assert
 (let (($x1566 (= cell_4_7 9)))
 (let (($x21 (= cell_4_7 8)))
 (let (($x5414 (= cell_4_7 7)))
 (let (($x347 (= cell_4_7 6)))
 (let (($x2352 (= cell_4_7 5)))
 (let (($x8525 (= cell_4_7 4)))
 (let (($x6884 (= cell_4_7 3)))
 (let (($x6498 (= cell_4_7 2)))
 (let (($x6793 (= cell_4_7 1)))
 (or $x6793 $x6498 $x6884 $x8525 $x2352 $x347 $x5414 $x21 $x1566)))))))))))
(assert
 (let (($x2308 (= cell_5_7 9)))
 (let (($x7600 (= cell_5_7 8)))
 (let (($x10062 (= cell_5_7 7)))
 (let (($x6529 (= cell_5_7 6)))
 (let (($x313 (= cell_5_7 5)))
 (let (($x5091 (= cell_5_7 4)))
 (let (($x7563 (= cell_5_7 3)))
 (let (($x2321 (= cell_5_7 2)))
 (let (($x9335 (= cell_5_7 1)))
 (or $x9335 $x2321 $x7563 $x5091 $x313 $x6529 $x10062 $x7600 $x2308)))))))))))
(assert
 (let (($x9556 (= cell_6_7 9)))
 (let (($x4266 (= cell_6_7 8)))
 (let (($x8954 (= cell_6_7 7)))
 (let (($x1622 (= cell_6_7 6)))
 (let (($x8458 (= cell_6_7 5)))
 (let (($x2273 (= cell_6_7 4)))
 (let (($x7083 (= cell_6_7 3)))
 (let (($x3138 (= cell_6_7 2)))
 (let (($x7995 (= cell_6_7 1)))
 (or $x7995 $x3138 $x7083 $x2273 $x8458 $x1622 $x8954 $x4266 $x9556)))))))))))
(assert
 (let (($x10165 (= cell_7_7 9)))
 (let (($x6910 (= cell_7_7 8)))
 (let (($x4080 (= cell_7_7 7)))
 (let (($x6822 (= cell_7_7 6)))
 (let (($x5836 (= cell_7_7 5)))
 (let (($x509 (= cell_7_7 4)))
 (let (($x8573 (= cell_7_7 3)))
 (let (($x635 (= cell_7_7 2)))
 (let (($x1038 (= cell_7_7 1)))
 (or $x1038 $x635 $x8573 $x509 $x5836 $x6822 $x4080 $x6910 $x10165)))))))))))
(assert
 (let (($x4977 (= cell_8_7 9)))
 (let (($x7779 (= cell_8_7 8)))
 (let (($x6819 (= cell_8_7 7)))
 (let (($x1247 (= cell_8_7 6)))
 (let (($x10168 (= cell_8_7 5)))
 (let (($x1930 (= cell_8_7 4)))
 (let (($x6197 (= cell_8_7 3)))
 (let (($x3173 (= cell_8_7 2)))
 (let (($x2156 (= cell_8_7 1)))
 (or $x2156 $x3173 $x6197 $x1930 $x10168 $x1247 $x6819 $x7779 $x4977)))))))))))
(assert
 (let (($x5833 (= cell_9_7 1)))
 (or $x5833 (= cell_9_7 2) (= cell_9_7 3) (= cell_9_7 4) (= cell_9_7 5) (= cell_9_7 6) (= cell_9_7 7) (= cell_9_7 8) (= cell_9_7 9))))
(assert
 (let (($x5208 (= cell_1_8 9)))
 (let (($x3645 (= cell_1_8 8)))
 (let (($x1174 (= cell_1_8 7)))
 (let (($x169 (= cell_1_8 6)))
 (let (($x4428 (= cell_1_8 5)))
 (let (($x4419 (= cell_1_8 4)))
 (let (($x8302 (= cell_1_8 3)))
 (let (($x3590 (= cell_1_8 2)))
 (let (($x2438 (= cell_1_8 1)))
 (or $x2438 $x3590 $x8302 $x4419 $x4428 $x169 $x1174 $x3645 $x5208)))))))))))
(assert
 (let (($x8187 (= cell_2_8 9)))
 (let (($x5153 (= cell_2_8 8)))
 (let (($x7242 (= cell_2_8 7)))
 (let (($x6336 (= cell_2_8 6)))
 (let (($x3276 (= cell_2_8 5)))
 (let (($x7013 (= cell_2_8 4)))
 (let (($x6503 (= cell_2_8 3)))
 (let (($x1523 (= cell_2_8 2)))
 (let (($x8357 (= cell_2_8 1)))
 (or $x8357 $x1523 $x6503 $x7013 $x3276 $x6336 $x7242 $x5153 $x8187)))))))))))
(assert
 (let (($x10267 (= cell_3_8 1)))
 (or $x10267 (= cell_3_8 2) (= cell_3_8 3) (= cell_3_8 4) (= cell_3_8 5) (= cell_3_8 6) (= cell_3_8 7) (= cell_3_8 8) (= cell_3_8 9))))
(assert
 (let (($x6683 (= cell_4_8 9)))
 (let (($x1727 (= cell_4_8 8)))
 (let (($x8699 (= cell_4_8 7)))
 (let (($x574 (= cell_4_8 6)))
 (let (($x10106 (= cell_4_8 5)))
 (let (($x7391 (= cell_4_8 4)))
 (let (($x4429 (= cell_4_8 3)))
 (let (($x4558 (= cell_4_8 2)))
 (let (($x3909 (= cell_4_8 1)))
 (or $x3909 $x4558 $x4429 $x7391 $x10106 $x574 $x8699 $x1727 $x6683)))))))))))
(assert
 (let (($x3925 (= cell_5_8 9)))
 (let (($x9162 (= cell_5_8 8)))
 (let (($x8394 (= cell_5_8 7)))
 (let (($x3412 (= cell_5_8 6)))
 (let (($x1165 (= cell_5_8 5)))
 (let (($x9344 (= cell_5_8 4)))
 (let (($x6714 (= cell_5_8 3)))
 (let (($x7763 (= cell_5_8 2)))
 (let (($x8518 (= cell_5_8 1)))
 (or $x8518 $x7763 $x6714 $x9344 $x1165 $x3412 $x8394 $x9162 $x3925)))))))))))
(assert
 (let (($x10201 (= cell_6_8 1)))
 (or $x10201 (= cell_6_8 2) (= cell_6_8 3) (= cell_6_8 4) (= cell_6_8 5) (= cell_6_8 6) (= cell_6_8 7) (= cell_6_8 8) (= cell_6_8 9))))
(assert
 (let (($x6113 (= cell_7_8 9)))
 (let (($x9948 (= cell_7_8 8)))
 (let (($x9836 (= cell_7_8 7)))
 (let (($x379 (= cell_7_8 6)))
 (let (($x2558 (= cell_7_8 5)))
 (let (($x6459 (= cell_7_8 4)))
 (let (($x2933 (= cell_7_8 3)))
 (let (($x1701 (= cell_7_8 2)))
 (let (($x7466 (= cell_7_8 1)))
 (or $x7466 $x1701 $x2933 $x6459 $x2558 $x379 $x9836 $x9948 $x6113)))))))))))
(assert
 (let (($x7257 (= cell_8_8 9)))
 (let (($x3801 (= cell_8_8 8)))
 (let (($x5364 (= cell_8_8 7)))
 (let (($x5402 (= cell_8_8 6)))
 (let (($x7310 (= cell_8_8 5)))
 (let (($x4495 (= cell_8_8 4)))
 (let (($x7867 (= cell_8_8 3)))
 (let (($x515 (= cell_8_8 2)))
 (let (($x918 (= cell_8_8 1)))
 (or $x918 $x515 $x7867 $x4495 $x7310 $x5402 $x5364 $x3801 $x7257)))))))))))
(assert
 (let (($x8792 (= cell_9_8 1)))
 (or $x8792 (= cell_9_8 2) (= cell_9_8 3) (= cell_9_8 4) (= cell_9_8 5) (= cell_9_8 6) (= cell_9_8 7) (= cell_9_8 8) (= cell_9_8 9))))
(assert
 (let (($x4204 (= cell_1_9 9)))
 (let (($x10184 (= cell_1_9 8)))
 (let (($x9746 (= cell_1_9 7)))
 (let (($x2827 (= cell_1_9 6)))
 (let (($x9654 (= cell_1_9 5)))
 (let (($x6723 (= cell_1_9 4)))
 (let (($x7318 (= cell_1_9 3)))
 (let (($x9712 (= cell_1_9 2)))
 (let (($x6339 (= cell_1_9 1)))
 (or $x6339 $x9712 $x7318 $x6723 $x9654 $x2827 $x9746 $x10184 $x4204)))))))))))
(assert
 (let (($x5407 (= cell_2_9 2)))
 (or (= cell_2_9 1) $x5407 (= cell_2_9 3) (= cell_2_9 4) (= cell_2_9 5) (= cell_2_9 6) (= cell_2_9 7) (= cell_2_9 8) (= cell_2_9 9))))
(assert
 (let (($x3019 (= cell_3_9 9)))
 (let (($x3310 (= cell_3_9 8)))
 (let (($x6344 (= cell_3_9 7)))
 (let (($x9365 (= cell_3_9 6)))
 (let (($x9770 (= cell_3_9 5)))
 (let (($x1045 (= cell_3_9 4)))
 (let (($x4866 (= cell_3_9 3)))
 (let (($x7554 (= cell_3_9 2)))
 (let (($x2272 (= cell_3_9 1)))
 (or $x2272 $x7554 $x4866 $x1045 $x9770 $x9365 $x6344 $x3310 $x3019)))))))))))
(assert
 (let (($x203 (= cell_4_9 9)))
 (let (($x9174 (= cell_4_9 8)))
 (let (($x600 (= cell_4_9 7)))
 (let (($x184 (= cell_4_9 6)))
 (let (($x7697 (= cell_4_9 5)))
 (let (($x6169 (= cell_4_9 4)))
 (let (($x3174 (= cell_4_9 3)))
 (let (($x10142 (= cell_4_9 2)))
 (let (($x2749 (= cell_4_9 1)))
 (or $x2749 $x10142 $x3174 $x6169 $x7697 $x184 $x600 $x9174 $x203)))))))))))
(assert
 (let (($x5789 (= cell_5_9 1)))
 (or $x5789 (= cell_5_9 2) (= cell_5_9 3) (= cell_5_9 4) (= cell_5_9 5) (= cell_5_9 6) (= cell_5_9 7) (= cell_5_9 8) (= cell_5_9 9))))
(assert
 (let (($x10329 (= cell_6_9 2)))
 (let (($x650 (= cell_6_9 1)))
 (or $x650 $x10329 (= cell_6_9 3) (= cell_6_9 4) (= cell_6_9 5) (= cell_6_9 6) (= cell_6_9 7) (= cell_6_9 8) (= cell_6_9 9)))))
(assert
 (let (($x6564 (= cell_7_9 9)))
 (let (($x9165 (= cell_7_9 8)))
 (let (($x4786 (= cell_7_9 7)))
 (let (($x578 (= cell_7_9 6)))
 (let (($x2617 (= cell_7_9 5)))
 (let (($x348 (= cell_7_9 4)))
 (let (($x5788 (= cell_7_9 3)))
 (let (($x3072 (= cell_7_9 2)))
 (let (($x1315 (= cell_7_9 1)))
 (or $x1315 $x3072 $x5788 $x348 $x2617 $x578 $x4786 $x9165 $x6564)))))))))))
(assert
 (let (($x6873 (= cell_8_9 9)))
 (let (($x2241 (= cell_8_9 8)))
 (let (($x1881 (= cell_8_9 7)))
 (let (($x8222 (= cell_8_9 6)))
 (let (($x8817 (= cell_8_9 5)))
 (let (($x8533 (= cell_8_9 4)))
 (let (($x4304 (= cell_8_9 3)))
 (let (($x2391 (= cell_8_9 2)))
 (let (($x10031 (= cell_8_9 1)))
 (or $x10031 $x2391 $x4304 $x8533 $x8817 $x8222 $x1881 $x2241 $x6873)))))))))))
(assert
 (let (($x7499 (= cell_9_9 2)))
 (let (($x4639 (= cell_9_9 1)))
 (or $x4639 $x7499 (= cell_9_9 3) (= cell_9_9 4) (= cell_9_9 5) (= cell_9_9 6) (= cell_9_9 7) (= cell_9_9 8) (= cell_9_9 9)))))
(assert
 (and (distinct cell_1_1 cell_1_2 cell_1_3 cell_1_4 cell_1_5 cell_1_6 cell_1_7 cell_1_8 cell_1_9) true))
(assert
 (and (distinct cell_2_1 cell_2_2 cell_2_3 cell_2_4 cell_2_5 cell_2_6 cell_2_7 cell_2_8 cell_2_9) true))
(assert
 (and (distinct cell_3_1 cell_3_2 cell_3_3 cell_3_4 cell_3_5 cell_3_6 cell_3_7 cell_3_8 cell_3_9) true))
(assert
 (and (distinct cell_4_1 cell_4_2 cell_4_3 cell_4_4 cell_4_5 cell_4_6 cell_4_7 cell_4_8 cell_4_9) true))
(assert
 (and (distinct cell_5_1 cell_5_2 cell_5_3 cell_5_4 cell_5_5 cell_5_6 cell_5_7 cell_5_8 cell_5_9) true))
(assert
 (and (distinct cell_6_1 cell_6_2 cell_6_3 cell_6_4 cell_6_5 cell_6_6 cell_6_7 cell_6_8 cell_6_9) true))
(assert
 (and (distinct cell_7_1 cell_7_2 cell_7_3 cell_7_4 cell_7_5 cell_7_6 cell_7_7 cell_7_8 cell_7_9) true))
(assert
 (and (distinct cell_8_1 cell_8_2 cell_8_3 cell_8_4 cell_8_5 cell_8_6 cell_8_7 cell_8_8 cell_8_9) true))
(assert
 (and (distinct cell_9_1 cell_9_2 cell_9_3 cell_9_4 cell_9_5 cell_9_6 cell_9_7 cell_9_8 cell_9_9) true))
(assert
 (and (distinct cell_1_1 cell_2_1 cell_3_1 cell_4_1 cell_5_1 cell_6_1 cell_7_1 cell_8_1 cell_9_1) true))
(assert
 (and (distinct cell_1_2 cell_2_2 cell_3_2 cell_4_2 cell_5_2 cell_6_2 cell_7_2 cell_8_2 cell_9_2) true))
(assert
 (and (distinct cell_1_3 cell_2_3 cell_3_3 cell_4_3 cell_5_3 cell_6_3 cell_7_3 cell_8_3 cell_9_3) true))
(assert
 (and (distinct cell_1_4 cell_2_4 cell_3_4 cell_4_4 cell_5_4 cell_6_4 cell_7_4 cell_8_4 cell_9_4) true))
(assert
 (and (distinct cell_1_5 cell_2_5 cell_3_5 cell_4_5 cell_5_5 cell_6_5 cell_7_5 cell_8_5 cell_9_5) true))
(assert
 (and (distinct cell_1_6 cell_2_6 cell_3_6 cell_4_6 cell_5_6 cell_6_6 cell_7_6 cell_8_6 cell_9_6) true))
(assert
 (and (distinct cell_1_7 cell_2_7 cell_3_7 cell_4_7 cell_5_7 cell_6_7 cell_7_7 cell_8_7 cell_9_7) true))
(assert
 (and (distinct cell_1_8 cell_2_8 cell_3_8 cell_4_8 cell_5_8 cell_6_8 cell_7_8 cell_8_8 cell_9_8) true))
(assert
 (and (distinct cell_1_9 cell_2_9 cell_3_9 cell_4_9 cell_5_9 cell_6_9 cell_7_9 cell_8_9 cell_9_9) true))
(assert
 (and (distinct cell_1_1 cell_1_2 cell_1_3 cell_2_1 cell_2_2 cell_2_3 cell_3_1 cell_3_2 cell_3_3) true))
(assert
 (and (distinct cell_1_4 cell_1_5 cell_1_6 cell_2_4 cell_2_5 cell_2_6 cell_3_4 cell_3_5 cell_3_6) true))
(assert
 (and (distinct cell_1_7 cell_1_8 cell_1_9 cell_2_7 cell_2_8 cell_2_9 cell_3_7 cell_3_8 cell_3_9) true))
(assert
 (and (distinct cell_4_1 cell_4_2 cell_4_3 cell_5_1 cell_5_2 cell_5_3 cell_6_1 cell_6_2 cell_6_3) true))
(assert
 (and (distinct cell_4_4 cell_4_5 cell_4_6 cell_5_4 cell_5_5 cell_5_6 cell_6_4 cell_6_5 cell_6_6) true))
(assert
 (and (distinct cell_4_7 cell_4_8 cell_4_9 cell_5_7 cell_5_8 cell_5_9 cell_6_7 cell_6_8 cell_6_9) true))
(assert
 (and (distinct cell_7_1 cell_7_2 cell_7_3 cell_8_1 cell_8_2 cell_8_3 cell_9_1 cell_9_2 cell_9_3) true))
(assert
 (and (distinct cell_7_4 cell_7_5 cell_7_6 cell_8_4 cell_8_5 cell_8_6 cell_9_4 cell_9_5 cell_9_6) true))
(assert
 (and (distinct cell_7_7 cell_7_8 cell_7_9 cell_8_7 cell_8_8 cell_8_9 cell_9_7 cell_9_8 cell_9_9) true))
(assert
 (let (($x4637 (and (distinct cell_5_9 cell_6_8 cell_7_7 cell_8_6) true)))
 (let (($x2604 (and (distinct cell_2_9 cell_3_8 cell_4_7 cell_5_6 cell_6_5 cell_7_4 cell_8_3 cell_9_2) true)))
 (let (($x10189 (and (distinct cell_1_8 cell_2_7 cell_3_6 cell_4_5 cell_5_4 cell_6_3 cell_7_2 cell_8_1) true)))
 (let (($x6799 (and (distinct cell_1_5 cell_2_4 cell_3_3 cell_4_2) true)))
 (let (($x7304 (and (distinct cell_5_1 cell_6_2 cell_7_3 cell_8_4) true)))
 (let (($x4409 (and (distinct cell_2_1 cell_3_2 cell_4_3 cell_5_4 cell_6_5 cell_7_6 cell_8_7 cell_9_8) true)))
 (let (($x6476 (and (distinct cell_1_2 cell_2_3 cell_3_4 cell_4_5 cell_5_6 cell_6_7 cell_7_8 cell_8_9) true)))
 (let (($x4232 (and (distinct cell_1_5 cell_2_6 cell_3_7 cell_4_8) true)))
 (and $x4232 $x6476 $x4409 $x7304 $x6799 $x10189 $x2604 $x4637))))))))))
(assert
 (= cell_4_4 2))
(check-sat)
